qbf_easy_train/easy_3378_SAT.qdimacs
p cnf 29 80
a 24 6 0
e 1 2 3 4 5 7 8 9 10 11 12 13 14 15 16 17 18 19 20 21 22 23 25 26 27 28 29 0
2 -1 -3 0
-2 1 -3 0
2 1 3 0
-2 -1 3 0
-4 -1 0
-4 3 0
1 -3 4 0
-5 6 -7 0
5 -6 -7 0
-5 -6 7 0
5 6 7 0
7 -5 -8 0
-7 5 -8 0
7 5 8 0
-7 -5 8 0
-9 2 0
-9 -8 0
-2 8 9 0
-4 9 -10 0
4 -9 -10 0
-4 -9 10 0
4 9 10 0
11 1 0
11 -5 0
-1 5 -11 0
-8 -11 -12 0
8 11 -12 0
-8 11 12 0
8 -11 12 0
14 13 0
14 11 0
-13 -11 -14 0
-12 -14 -15 0
12 14 -15 0
-12 14 15 0
12 -14 15 0
-16 10 0
-16 15 0
-10 -15 16 0
17 -11 0
17 -2 0
11 2 -17 0
1 18 -19 0
-1 -18 -19 0
1 -18 19 0
-1 18 19 0
-20 -17 0
-20 19 0
17 -19 20 0
-22 -2 0
-22 -21 0
2 21 22 0
23 -5 0
23 -6 0
5 6 -23 0
23 24 -25 0
-23 -24 -25 0
23 -24 25 0
-23 24 25 0
-26 25 0
-26 -6 0
-25 6 26 0
27 -22 0
27 26 0
22 -26 -27 0
28 20 0
28 -27 0
-20 27 -28 0
-16 28 -29 0
16 -28 -29 0
-16 -28 29 0
16 28 29 0
13 3 0
-7 27 19 -2 -15 -11 0
23 13 -2 0
4 16 17 0
19 18 26 15 -21 -10 5 0
-11 -23 15 -6 14 0
-21 18 -11 0
29 0
