sat_easy_train/easy_3378_SAT.dimacs
p cnf 135 459
3 -1 0
3 2 0
1 -2 -3 0
6 -4 0
6 5 0
4 -5 -6 0
3 6 -7 0
-3 -6 -7 0
3 -6 7 0
-3 6 7 0
10 5 0
10 9 0
-5 -9 -10 0
11 -8 0
11 -10 0
8 10 -11 0
-12 -11 0
-12 10 0
11 -10 12 0
-12 -13 -14 0
12 13 -14 0
-12 13 14 0
12 -13 14 0
2 15 -16 0
-2 -15 -16 0
2 -15 16 0
-2 15 16 0
17 -6 0
17 16 0
6 -16 -17 0
-18 -4 0
-18 -17 0
4 17 18 0
-14 -18 -19 0
14 18 -19 0
-14 18 19 0
14 -18 19 0
20 8 0
20 13 0
-8 -13 -20 0
22 20 0
22 21 0
-20 -21 -22 0
-22 -3 -23 0
22 3 -23 0
-22 3 23 0
22 -3 23 0
-24 -19 0
-24 23 0
19 -23 24 0
-25 -7 0
-25 24 0
7 -24 25 0
26 -10 0
26 -3 0
10 3 -26 0
-27 5 0
-27 26 0
-5 -26 27 0
27 -28 -29 0
-27 28 -29 0
27 28 29 0
-27 -28 29 0
30 29 0
30 16 0
-29 -16 -30 0
-31 -25 0
-31 -30 0
25 30 31 0
-32 21 0
-32 29 0
-21 -29 32 0
34 -32 0
34 33 0
32 -33 -34 0
35 -12 0
35 -6 0
12 6 -35 0
-36 34 0
-36 -35 0
-34 35 36 0
37 -31 0
37 -36 0
31 36 -37 0
38 -39 -40 0
-38 39 -40 0
38 39 40 0
-38 -39 40 0
-5 -40 -41 0
5 40 -41 0
-5 40 41 0
5 -40 41 0
-42 33 -43 0
42 -33 -43 0
-42 -33 43 0
42 33 43 0
44 6 0
44 8 0
-6 -8 -44 0
45 28 0
45 44 0
-28 -44 -45 0
-46 -15 0
-46 -45 0
15 45 46 0
9 46 -47 0
-9 -46 -47 0
9 -46 47 0
-9 46 47 0
-48 -47 0
-48 18 0
47 -18 48 0
-49 -43 0
-49 48 0
43 -48 49 0
-50 26 0
-50 18 0
-26 -18 50 0
51 -49 0
51 -50 0
49 50 -51 0
-41 51 -52 0
41 -51 -52 0
-41 -51 52 0
41 51 52 0
10 -4 -53 0
-10 4 -53 0
10 4 53 0
-10 -4 53 0
-54 18 0
-54 -13 0
-18 13 54 0
55 4 0
55 -54 0
-4 54 -55 0
55 -39 -56 0
-55 39 -56 0
55 39 56 0
-55 -39 56 0
-57 53 0
-57 56 0
-53 -56 57 0
57 53 -58 0
-57 -53 -58 0
57 -53 58 0
-57 53 58 0
-59 40 0
-59 21 0
-40 -21 59 0
60 58 0
60 59 0
-58 -59 -60 0
11 -39 -61 0
-11 39 -61 0
11 39 61 0
-11 -39 61 0
11 -62 0
-11 -62 0
-63 -8 0
-63 62 0
8 -62 63 0
64 61 0
64 63 0
-61 -63 -64 0
60 64 -65 0
-60 -64 -65 0
60 -64 65 0
-60 64 65 0
66 52 0
66 -65 0
-52 65 -66 0
-3 -39 -67 0
3 39 -67 0
-3 39 67 0
3 -39 67 0
68 67 0
68 42 0
-67 -42 -68 0
69 -68 0
69 55 0
68 -55 -69 0
70 -69 0
70 -54 0
69 54 -70 0
71 28 0
71 -20 0
-28 20 -71 0
71 18 -72 0
-71 -18 -72 0
71 -18 72 0
-71 18 72 0
27 -13 -73 0
-27 13 -73 0
27 13 73 0
-27 -13 73 0
17 -8 -74 0
-17 8 -74 0
17 8 74 0
-17 -8 74 0
75 -74 0
75 -3 0
74 3 -75 0
76 -19 0
76 75 0
19 -75 -76 0
-77 73 0
-77 -76 0
-73 76 77 0
72 77 -78 0
-72 -77 -78 0
72 -77 78 0
-72 77 78 0
79 -70 0
79 78 0
70 -78 -79 0
-80 -48 0
-80 40 0
48 -40 80 0
-81 39 0
-81 55 0
-39 -55 81 0
82 -80 0
82 81 0
80 -81 -82 0
-13 2 -83 0
13 -2 -83 0
-13 -2 83 0
13 2 83 0
-84 82 0
-84 -83 0
-82 83 84 0
85 -79 0
85 -84 0
79 84 -85 0
-66 -85 -86 0
66 85 -86 0
-66 85 86 0
66 -85 86 0
-87 -28 0
-87 28 0
38 -4 -88 0
-38 4 -88 0
38 4 88 0
-38 -4 88 0
2 88 -89 0
-2 -88 -89 0
2 -88 89 0
-2 88 89 0
20 -89 -90 0
-20 89 -90 0
20 89 90 0
-20 -89 90 0
87 -90 -91 0
-87 90 -91 0
87 90 91 0
-87 -90 91 0
-86 91 -92 0
86 -91 -92 0
-86 -91 92 0
86 91 92 0
18 -40 -93 0
-18 40 -93 0
18 40 93 0
-18 -40 93 0
94 -92 0
94 93 0
92 -93 -94 0
-96 -39 0
-96 -95 0
39 95 96 0
97 38 0
97 -71 0
-38 71 -97 0
-98 -6 0
-98 54 0
6 -54 98 0
99 -97 0
99 -98 0
97 98 -99 0
100 -96 0
100 -99 0
96 99 -100 0
101 74 0
101 16 0
-74 -16 -101 0
46 101 -102 0
-46 -101 -102 0
46 -101 102 0
-46 101 102 0
-103 -102 0
-103 56 0
102 -56 103 0
104 42 0
104 53 0
-42 -53 -104 0
105 103 0
105 -104 0
-103 104 -105 0
106 -100 0
106 -105 0
100 105 -106 0
-107 -94 0
-107 106 0
94 -106 107 0
-37 -107 -108 0
37 107 -108 0
-37 107 108 0
37 -107 108 0
110 109 0
110 54 0
-109 -54 -110 0
-111 -56 0
-111 -2 0
56 2 111 0
112 97 0
112 -38 0
-97 38 -112 0
111 -112 -113 0
-111 112 -113 0
111 112 113 0
-111 -112 113 0
2 -74 -114 0
-2 74 -114 0
2 74 114 0
-2 -74 114 0
115 -113 0
115 -114 0
113 114 -115 0
116 -88 0
116 56 0
88 -56 -116 0
-117 -14 0
-117 116 0
14 -116 117 0
115 -117 -118 0
-115 117 -118 0
115 117 118 0
-115 -117 118 0
-119 110 0
-119 -118 0
-110 118 119 0
-12 4 -120 0
12 -4 -120 0
-12 -4 120 0
12 4 120 0
121 120 0
121 8 0
-120 -8 -121 0
-122 -39 0
-122 120 0
39 -120 122 0
123 -121 0
123 -122 0
121 122 -123 0
-124 69 0
-124 123 0
-69 -123 124 0
124 12 -125 0
-124 -12 -125 0
124 -12 125 0
-124 12 125 0
-73 11 -126 0
73 -11 -126 0
-73 -11 126 0
73 11 126 0
125 -126 -127 0
-125 126 -127 0
125 126 127 0
-125 -126 127 0
-128 62 0
-128 -69 0
-62 69 128 0
13 -29 -129 0
-13 29 -129 0
13 29 129 0
-13 -29 129 0
128 -129 -130 0
-128 129 -130 0
128 129 130 0
-128 -129 130 0
-131 11 0
-131 -33 0
-11 33 131 0
132 -130 0
132 -131 0
130 131 -132 0
127 -132 -133 0
-127 132 -133 0
127 132 133 0
-127 -132 133 0
119 133 -134 0
-119 -133 -134 0
119 -133 134 0
-119 133 134 0
108 134 -135 0
-108 -134 -135 0
108 -134 135 0
-108 134 135 0
-20 -95 -66 -115 37 0
-123 21 13 25 -33 0
-105 120 0
35 32 126 -46 50 29 0
-43 -22 -112 -120 -80 0
-96 95 -125 -2 0
-59 16 -112 0
78 -124 86 4 0
38 -100 0
77 -42 -113 -96 5 0
4 58 -105 0
117 -1 97 26 0
13 -6 86 96 0
-123 27 -3 -100 0
82 39 89 125 -34 0
-53 27 -76 100 78 -132 0
-106 -34 -21 -73 53 0
21 -133 79 37 -1 -57 0
128 78 72 -70 -94 0
77 -51 -52 -48 121 0
45 -81 -7 0
-95 -122 -36 18 129 0
78 -27 0
2 -25 66 61 -112 46 0
-120 92 7 -3 0
-48 -101 -92 0
81 -134 -83 -45 48 89 0
-23 -88 0
21 55 118 0
-10 53 -20 -118 0
67 59 99 0
-22 95 63 42 -21 102 0
69 -52 57 -76 0
-9 89 -74 -106 -11 -58 0
-123 37 87 46 0
105 100 -65 75 0
47 63 0
9 -78 -19 -17 57 0
-2 -32 5 100 33 -103 0
-37 7 99 0
7 -24 48 -126 0
95 -18 -16 2 0
-129 37 -19 0
-135 -122 102 -134 -120 0
129 -117 0
-72 -128 -24 0
-114 -8 46 12 7 0
13 -69 -84 1 72 59 0
15 -48 -12 -3 82 -1 0
72 -71 63 7 16 0
-30 48 15 -31 0
131 -98 -115 74 -3 0
-66 2 -107 -102 0
-9 -46 105 -20 118 0
-75 49 103 4 -55 0
45 -97 48 130 112 0
-30 -84 0
99 -35 0
-89 49 -12 0
-43 -29 -80 57 116 0
135 0
